%scf MaxIter 1000 end
! RKS B3LYP SVP Grid4
! opt
!RIJCOSX 

* xyz 0 1
  
C         -2.88674        1.57734       -0.00649
C         -1.78652        0.82512       -0.13188
H         -2.82926        2.63086        0.25471
H         -3.87158        1.15069       -0.16348
C         -0.45444        1.40663        0.08191
H         -1.83949       -0.22478       -0.39161
O          0.48977        0.46833       -0.08941
O         -0.18480        2.55564        0.37237
H          1.32684        0.95053        0.07387
*
